%%% static parameters %%%
timespan = 1;
Fact = [4];
Distr1 = [15];
Distr2 = [30];
Clients_N = [300];
Demand_W = [15];
Lt0 = [4];
Lt1 = [4];
SS_ = [0.85];
DS_D = [8];
K = [200];
MA = [500];
%%% dynamic parameters %%%
lost_ratio_sales_ret_th = 0.5403095335050929;
lost_ratio_sales_ret_w = 75;
lost_ratio_sales_dis_th = 0.47306233483754967;
lost_ratio_sales_dis_w = 34;
lost_ratio_sales_fac_th = 0.948561592377024;
lost_ratio_sales_fac_w = 86;
stock_customer_MA_mean_relative_th = 0.6799768412301445;
stock_customer_MA_mean_relative_w = 8;
stock_distributor_MA_mean_relative_th = 0.04399739534170666;
stock_distributor_MA_mean_relative_w = 13;
stock_retailer_MA_mean_relative_th = 0.9656030603240642;
stock_retailer_MA_mean_relative_w = 37;
stock_factory_MA_mean_relative_th = 0.026580106965489403;
stock_factory_MA_mean_relative_w = 54;
